benchmark_instances/dzn_benchmark_instances/benchmark_instance_7-4.dzn
% Input: sequence of points
seq_points = [|1,1
              |2,1
              |1,2
              |2,2
              |3,2
              |5,2
              |6,2
              |6,3
              |3,4
              |4,4
              |4,5
              |5,5
              |2,6
              |3,6
              |2,0
              |3,0
              |7,0
              |7,2
              |7,3
              |7,7
              |0,7
              |0,0
             |];

num_points = 22;
