benchmark_instances/lp_benchmark_instances/benchmark_instance_7-4.lp
% Input: sequence of points
point(1,1).
point(2,1).
point(1,2).
point(2,2).
point(3,2).
point(5,2).
point(6,2).
point(6,3).
point(3,4).
point(4,4).
point(4,5).
point(5,5).
point(2,6).
point(3,6).
point(2,0).
point(3,0).
point(7,0).
point(7,2).
point(7,3).
point(7,7).
point(0,7).
point(0,0).
